0	69	349	0	200
1	374	129	0	200
2	182	448	0	200
3	295	328	0	200
4	386	344	0	200
5	331	222	0	200
6	30	148	0	200
7	395	31	0	200
8	422	299	0	200
9	49	336	0	200
10	16	298	0	200
11	396	101	0	200
12	328	43	0	200
13	220	448	0	200
14	185	72	0	200
15	290	264	0	200
16	254	236	0	200
17	311	354	0	200
18	322	217	0	200
19	449	256	0	200
20	322	13	0	200
21	467	335	0	200
22	355	40	0	200
23	30	402	0	200
24	248	205	0	200
